maximize
OBJ: +14 x1 +11 x2 +18 x3 +15 x4 +19 x5 +15 x6 +16 x7 +10 x8 +14 x9 +18 x10 +11 x11 +18 x12 +14 x13 +18 x14 +11 x15 +13 x16 +18 x17 +16 x18 +12 x19 +15 x20 +13 x21 +16 x22 +17 x23 +19 x24 +17 x25 +11 x26 +19 x27 +16 x28 +12 x29 +14 x30 +16 x31 +17 x32 +18 x33 +11 x34 +18 x35 +10 x36 +15 x37 +13 x38 +11 x39 +10 x40 +13 x41 +17 x42 +16 x43 +15 x44 +11 x45 +16 x46 +17 x47 +11 x48 +13 x49 +16 x50 +17 x51 +15 x52 +19 x53 +16 x54 +10 x55 +17 x56 +15 x57 +16 x58 +16 x59 +19 x60 +14 x61 +11 x62 +18 x63 +15 x64 +19 x65 +15 x66 +16 x67 +10 x68 +14 x69 +18 x70 +11 x71 +18 x72 +14 x73 +18 x74 +11 x75 +13 x76 +18 x77 +16 x78 +12 x79 +15 x80 +13 x81 +16 x82 +17 x83 +19 x84 +17 x85 +11 x86 +19 x87 +16 x88 +12 x89 +14 x90 +16 x91 +17 x92 +18 x93 +11 x94 +18 x95 +10 x96 +15 x97 +13 x98 +11 x99 +10 x100 +13 x101 +17 x102 +16 x103 +15 x104 +11 x105 +16 x106 +17 x107 +11 x108 +13 x109 +16 x110 +17 x111 +15 x112 +19 x113 +16 x114 +10 x115 +17 x116 +15 x117 +16 x118 +16 x119 +19 x120 +14 x121 +11 x122 +18 x123 +15 x124 +19 x125 +15 x126 +16 x127 +10 x128 +14 x129 +18 x130 +11 x131 +18 x132 +14 x133 +18 x134 +11 x135 +13 x136 +18 x137 +16 x138 +12 x139 +15 x140 +13 x141 +16 x142 +17 x143 +19 x144 +17 x145 +11 x146 +19 x147 +16 x148 +12 x149 +14 x150 +16 x151 +17 x152 +18 x153 +11 x154 +18 x155 +10 x156 +15 x157 +13 x158 +11 x159 +10 x160 +13 x161 +17 x162 +16 x163 +15 x164 +11 x165 +16 x166 +17 x167 +11 x168 +13 x169 +16 x170 +17 x171 +15 x172 +19 x173 +16 x174 +10 x175 +17 x176 +15 x177 +16 x178 +16 x179 +19 x180 +14 x181 +11 x182 +18 x183 +15 x184 +19 x185 +15 x186 +16 x187 +10 x188 +14 x189 +18 x190 +11 x191 +18 x192 +14 x193 +18 x194 +11 x195 +13 x196 +18 x197 +16 x198 +12 x199 +15 x200 +13 x201 +16 x202 +17 x203 +19 x204 +17 x205 +11 x206 +19 x207 +16 x208 +12 x209 +14 x210 +16 x211 +17 x212 +18 x213 +11 x214 +18 x215 +10 x216 +15 x217 +13 x218 +11 x219 +10 x220 +13 x221 +17 x222 +16 x223 +15 x224 +11 x225 +16 x226 +17 x227 +11 x228 +13 x229 +16 x230 +17 x231 +15 x232 +19 x233 +16 x234 +10 x235 +17 x236 +15 x237 +16 x238 +16 x239 +19 x240 +14 x241 +11 x242 +18 x243 +15 x244 +19 x245 +15 x246 +16 x247 +10 x248 +14 x249 +18 x250 +11 x251 +18 x252 +14 x253 +18 x254 +11 x255 +13 x256 +18 x257 +16 x258 +12 x259 +15 x260 +13 x261 +16 x262 +17 x263 +19 x264 +17 x265 +11 x266 +19 x267 +16 x268 +12 x269 +14 x270 +16 x271 +17 x272 +18 x273 +11 x274 +18 x275 +10 x276 +15 x277 +13 x278 +11 x279 +10 x280 +13 x281 +17 x282 +16 x283 +15 x284 +11 x285 +16 x286 +17 x287 +11 x288 +13 x289 +16 x290 +17 x291 +15 x292 +19 x293 +16 x294 +10 x295 +17 x296 +15 x297 +16 x298 +16 x299 +19 x300 +14 x301 +11 x302 +18 x303 +15 x304 +19 x305 +15 x306 +16 x307 +10 x308 +14 x309 +18 x310 +11 x311 +18 x312 +14 x313 +18 x314 +11 x315 +13 x316 +18 x317 +16 x318 +12 x319 +15 x320 +13 x321 +16 x322 +17 x323 +19 x324 +17 x325 +11 x326 +19 x327 +16 x328 +12 x329 +14 x330 +16 x331 +17 x332 +18 x333 +11 x334 +18 x335 +10 x336 +15 x337 +13 x338 +11 x339 +10 x340 +13 x341 +17 x342 +16 x343 +15 x344 +11 x345 +16 x346 +17 x347 +11 x348 +13 x349 +16 x350 +17 x351 +15 x352 +19 x353 +16 x354 +10 x355 +17 x356 +15 x357 +16 x358 +16 x359 +19 x360 +14 x361 +11 x362 +18 x363 +15 x364 +19 x365 +15 x366 +16 x367 +10 x368 +14 x369 +18 x370 +11 x371 +18 x372 +14 x373 +18 x374 +11 x375 +13 x376 +18 x377 +16 x378 +12 x379 +15 x380 +13 x381 +16 x382 +17 x383 +19 x384 +17 x385 +11 x386 +19 x387 +16 x388 +12 x389 +14 x390 +16 x391 +17 x392 +18 x393 +11 x394 +18 x395 +10 x396 +15 x397 +13 x398 +11 x399 +10 x400 +13 x401 +17 x402 +16 x403 +15 x404 +11 x405 +16 x406 +17 x407 +11 x408 +13 x409 +16 x410 +17 x411 +15 x412 +19 x413 +16 x414 +10 x415 +17 x416 +15 x417 +16 x418 +16 x419 +19 x420 +14 x421 +11 x422 +18 x423 +15 x424 +19 x425 +15 x426 +16 x427 +10 x428 +14 x429 +18 x430 +11 x431 +18 x432 +14 x433 +18 x434 +11 x435 +13 x436 +18 x437 +16 x438 +12 x439 +15 x440 +13 x441 +16 x442 +17 x443 +19 x444 +17 x445 +11 x446 +19 x447 +16 x448 +12 x449 +14 x450 +16 x451 +17 x452 +18 x453 +11 x454 +18 x455 +10 x456 +15 x457 +13 x458 +11 x459 +10 x460 +13 x461 +17 x462 +16 x463 +15 x464 +11 x465 +16 x466 +17 x467 +11 x468 +13 x469 +16 x470 +17 x471 +15 x472 +19 x473 +16 x474 +10 x475 +17 x476 +15 x477 +16 x478 +16 x479 +19 x480 +14 x481 +11 x482 +18 x483 +15 x484 +19 x485 +15 x486 +16 x487 +10 x488 +14 x489 +18 x490 +11 x491 +18 x492 +14 x493 +18 x494 +11 x495 +13 x496 +18 x497 +16 x498 +12 x499 +15 x500 +13 x501 +16 x502 +17 x503 +19 x504 +17 x505 +11 x506 +19 x507 +16 x508 +12 x509 +14 x510 +16 x511 +17 x512 +18 x513 +11 x514 +18 x515 +10 x516 +15 x517 +13 x518 +11 x519 +10 x520 +13 x521 +17 x522 +16 x523 +15 x524 +11 x525 +16 x526 +17 x527 +11 x528 +13 x529 +16 x530 +17 x531 +15 x532 +19 x533 +16 x534 +10 x535 +17 x536 +15 x537 +16 x538 +16 x539 +19 x540 +14 x541 +11 x542 +18 x543 +15 x544 +19 x545 +15 x546 +16 x547 +10 x548 +14 x549 +18 x550 +11 x551 +18 x552 +14 x553 +18 x554 +11 x555 +13 x556 +18 x557 +16 x558 +12 x559 +15 x560 +13 x561 +16 x562 +17 x563 +19 x564 +17 x565 +11 x566 +19 x567 +16 x568 +12 x569 +14 x570 +16 x571 +17 x572 +18 x573 +11 x574 +18 x575 +10 x576 +15 x577 +13 x578 +11 x579 +10 x580 +13 x581 +17 x582 +16 x583 +15 x584 +11 x585 +16 x586 +17 x587 +11 x588 +13 x589 +16 x590 +17 x591 +15 x592 +19 x593 +16 x594 +10 x595 +17 x596 +15 x597 +16 x598 +16 x599 +19 x600 +14 x601 +11 x602 +18 x603 +15 x604 +19 x605 +15 x606 +16 x607 +10 x608 +14 x609 +18 x610 +11 x611 +18 x612 +14 x613 +18 x614 +11 x615 +13 x616 +18 x617 +16 x618 +12 x619 +15 x620 +13 x621 +16 x622 +17 x623 +19 x624 +17 x625 +11 x626 +19 x627 +16 x628 +12 x629 +14 x630 +16 x631 +17 x632 +18 x633 +11 x634 +18 x635 +10 x636 +15 x637 +13 x638 +11 x639 +10 x640 +13 x641 +17 x642 +16 x643 +15 x644 +11 x645 +16 x646 +17 x647 +11 x648 +13 x649 +16 x650 +17 x651 +15 x652 +19 x653 +16 x654 +10 x655 +17 x656 +15 x657 +16 x658 +16 x659 +19 x660 +14 x661 +11 x662 +18 x663 +15 x664 +19 x665 +15 x666 +16 x667 +10 x668 +14 x669 +18 x670 +11 x671 +18 x672 +14 x673 +18 x674 +11 x675 +13 x676 +18 x677 +16 x678 +12 x679 +15 x680 +13 x681 +16 x682 +17 x683 +19 x684 +17 x685 +11 x686 +19 x687 +16 x688 +12 x689 +14 x690 +16 x691 +17 x692 +18 x693 +11 x694 +18 x695 +10 x696 +15 x697 +13 x698 +11 x699 +10 x700 +13 x701 +17 x702 +16 x703 +15 x704 +11 x705 +16 x706 +17 x707 +11 x708 +13 x709 +16 x710 +17 x711 +15 x712 +19 x713 +16 x714 +10 x715 +17 x716 +15 x717 +16 x718 +16 x719 +19 x720

subject to
C1: +14 x1 +11 x2 +18 x3 +15 x4 +19 x5 +15 x6 +16 x7 +10 x8 +14 x9 +18 x10 +11 x11 +18 x12 +14 x13 +18 x14 +11 x15 +13 x16 +18 x17 +16 x18 +12 x19 +15 x20 +13 x21 +16 x22 +17 x23 +19 x24 +17 x25 +11 x26 +19 x27 +16 x28 +12 x29 +14 x30 +16 x31 +17 x32 +18 x33 +11 x34 +18 x35 +10 x36 +15 x37 +13 x38 +11 x39 +10 x40 +13 x41 +17 x42 +16 x43 +15 x44 +11 x45 +16 x46 +17 x47 +11 x48 +13 x49 +16 x50 +17 x51 +15 x52 +19 x53 +16 x54 +10 x55 +17 x56 +15 x57 +16 x58 +16 x59 +19 x60 <= 29
C2: +14 x61 +11 x62 +18 x63 +15 x64 +19 x65 +15 x66 +16 x67 +10 x68 +14 x69 +18 x70 +11 x71 +18 x72 +14 x73 +18 x74 +11 x75 +13 x76 +18 x77 +16 x78 +12 x79 +15 x80 +13 x81 +16 x82 +17 x83 +19 x84 +17 x85 +11 x86 +19 x87 +16 x88 +12 x89 +14 x90 +16 x91 +17 x92 +18 x93 +11 x94 +18 x95 +10 x96 +15 x97 +13 x98 +11 x99 +10 x100 +13 x101 +17 x102 +16 x103 +15 x104 +11 x105 +16 x106 +17 x107 +11 x108 +13 x109 +16 x110 +17 x111 +15 x112 +19 x113 +16 x114 +10 x115 +17 x116 +15 x117 +16 x118 +16 x119 +19 x120 <= 30
C3: +14 x121 +11 x122 +18 x123 +15 x124 +19 x125 +15 x126 +16 x127 +10 x128 +14 x129 +18 x130 +11 x131 +18 x132 +14 x133 +18 x134 +11 x135 +13 x136 +18 x137 +16 x138 +12 x139 +15 x140 +13 x141 +16 x142 +17 x143 +19 x144 +17 x145 +11 x146 +19 x147 +16 x148 +12 x149 +14 x150 +16 x151 +17 x152 +18 x153 +11 x154 +18 x155 +10 x156 +15 x157 +13 x158 +11 x159 +10 x160 +13 x161 +17 x162 +16 x163 +15 x164 +11 x165 +16 x166 +17 x167 +11 x168 +13 x169 +16 x170 +17 x171 +15 x172 +19 x173 +16 x174 +10 x175 +17 x176 +15 x177 +16 x178 +16 x179 +19 x180 <= 33
C4: +14 x181 +11 x182 +18 x183 +15 x184 +19 x185 +15 x186 +16 x187 +10 x188 +14 x189 +18 x190 +11 x191 +18 x192 +14 x193 +18 x194 +11 x195 +13 x196 +18 x197 +16 x198 +12 x199 +15 x200 +13 x201 +16 x202 +17 x203 +19 x204 +17 x205 +11 x206 +19 x207 +16 x208 +12 x209 +14 x210 +16 x211 +17 x212 +18 x213 +11 x214 +18 x215 +10 x216 +15 x217 +13 x218 +11 x219 +10 x220 +13 x221 +17 x222 +16 x223 +15 x224 +11 x225 +16 x226 +17 x227 +11 x228 +13 x229 +16 x230 +17 x231 +15 x232 +19 x233 +16 x234 +10 x235 +17 x236 +15 x237 +16 x238 +16 x239 +19 x240 <= 30
C5: +14 x241 +11 x242 +18 x243 +15 x244 +19 x245 +15 x246 +16 x247 +10 x248 +14 x249 +18 x250 +11 x251 +18 x252 +14 x253 +18 x254 +11 x255 +13 x256 +18 x257 +16 x258 +12 x259 +15 x260 +13 x261 +16 x262 +17 x263 +19 x264 +17 x265 +11 x266 +19 x267 +16 x268 +12 x269 +14 x270 +16 x271 +17 x272 +18 x273 +11 x274 +18 x275 +10 x276 +15 x277 +13 x278 +11 x279 +10 x280 +13 x281 +17 x282 +16 x283 +15 x284 +11 x285 +16 x286 +17 x287 +11 x288 +13 x289 +16 x290 +17 x291 +15 x292 +19 x293 +16 x294 +10 x295 +17 x296 +15 x297 +16 x298 +16 x299 +19 x300 <= 37
C6: +14 x301 +11 x302 +18 x303 +15 x304 +19 x305 +15 x306 +16 x307 +10 x308 +14 x309 +18 x310 +11 x311 +18 x312 +14 x313 +18 x314 +11 x315 +13 x316 +18 x317 +16 x318 +12 x319 +15 x320 +13 x321 +16 x322 +17 x323 +19 x324 +17 x325 +11 x326 +19 x327 +16 x328 +12 x329 +14 x330 +16 x331 +17 x332 +18 x333 +11 x334 +18 x335 +10 x336 +15 x337 +13 x338 +11 x339 +10 x340 +13 x341 +17 x342 +16 x343 +15 x344 +11 x345 +16 x346 +17 x347 +11 x348 +13 x349 +16 x350 +17 x351 +15 x352 +19 x353 +16 x354 +10 x355 +17 x356 +15 x357 +16 x358 +16 x359 +19 x360 <= 43
C7: +14 x361 +11 x362 +18 x363 +15 x364 +19 x365 +15 x366 +16 x367 +10 x368 +14 x369 +18 x370 +11 x371 +18 x372 +14 x373 +18 x374 +11 x375 +13 x376 +18 x377 +16 x378 +12 x379 +15 x380 +13 x381 +16 x382 +17 x383 +19 x384 +17 x385 +11 x386 +19 x387 +16 x388 +12 x389 +14 x390 +16 x391 +17 x392 +18 x393 +11 x394 +18 x395 +10 x396 +15 x397 +13 x398 +11 x399 +10 x400 +13 x401 +17 x402 +16 x403 +15 x404 +11 x405 +16 x406 +17 x407 +11 x408 +13 x409 +16 x410 +17 x411 +15 x412 +19 x413 +16 x414 +10 x415 +17 x416 +15 x417 +16 x418 +16 x419 +19 x420 <= 32
C8: +14 x421 +11 x422 +18 x423 +15 x424 +19 x425 +15 x426 +16 x427 +10 x428 +14 x429 +18 x430 +11 x431 +18 x432 +14 x433 +18 x434 +11 x435 +13 x436 +18 x437 +16 x438 +12 x439 +15 x440 +13 x441 +16 x442 +17 x443 +19 x444 +17 x445 +11 x446 +19 x447 +16 x448 +12 x449 +14 x450 +16 x451 +17 x452 +18 x453 +11 x454 +18 x455 +10 x456 +15 x457 +13 x458 +11 x459 +10 x460 +13 x461 +17 x462 +16 x463 +15 x464 +11 x465 +16 x466 +17 x467 +11 x468 +13 x469 +16 x470 +17 x471 +15 x472 +19 x473 +16 x474 +10 x475 +17 x476 +15 x477 +16 x478 +16 x479 +19 x480 <= 39
C9: +14 x481 +11 x482 +18 x483 +15 x484 +19 x485 +15 x486 +16 x487 +10 x488 +14 x489 +18 x490 +11 x491 +18 x492 +14 x493 +18 x494 +11 x495 +13 x496 +18 x497 +16 x498 +12 x499 +15 x500 +13 x501 +16 x502 +17 x503 +19 x504 +17 x505 +11 x506 +19 x507 +16 x508 +12 x509 +14 x510 +16 x511 +17 x512 +18 x513 +11 x514 +18 x515 +10 x516 +15 x517 +13 x518 +11 x519 +10 x520 +13 x521 +17 x522 +16 x523 +15 x524 +11 x525 +16 x526 +17 x527 +11 x528 +13 x529 +16 x530 +17 x531 +15 x532 +19 x533 +16 x534 +10 x535 +17 x536 +15 x537 +16 x538 +16 x539 +19 x540 <= 38
C10: +14 x541 +11 x542 +18 x543 +15 x544 +19 x545 +15 x546 +16 x547 +10 x548 +14 x549 +18 x550 +11 x551 +18 x552 +14 x553 +18 x554 +11 x555 +13 x556 +18 x557 +16 x558 +12 x559 +15 x560 +13 x561 +16 x562 +17 x563 +19 x564 +17 x565 +11 x566 +19 x567 +16 x568 +12 x569 +14 x570 +16 x571 +17 x572 +18 x573 +11 x574 +18 x575 +10 x576 +15 x577 +13 x578 +11 x579 +10 x580 +13 x581 +17 x582 +16 x583 +15 x584 +11 x585 +16 x586 +17 x587 +11 x588 +13 x589 +16 x590 +17 x591 +15 x592 +19 x593 +16 x594 +10 x595 +17 x596 +15 x597 +16 x598 +16 x599 +19 x600 <= 35
C11: +14 x601 +11 x602 +18 x603 +15 x604 +19 x605 +15 x606 +16 x607 +10 x608 +14 x609 +18 x610 +11 x611 +18 x612 +14 x613 +18 x614 +11 x615 +13 x616 +18 x617 +16 x618 +12 x619 +15 x620 +13 x621 +16 x622 +17 x623 +19 x624 +17 x625 +11 x626 +19 x627 +16 x628 +12 x629 +14 x630 +16 x631 +17 x632 +18 x633 +11 x634 +18 x635 +10 x636 +15 x637 +13 x638 +11 x639 +10 x640 +13 x641 +17 x642 +16 x643 +15 x644 +11 x645 +16 x646 +17 x647 +11 x648 +13 x649 +16 x650 +17 x651 +15 x652 +19 x653 +16 x654 +10 x655 +17 x656 +15 x657 +16 x658 +16 x659 +19 x660 <= 40
C12: +14 x661 +11 x662 +18 x663 +15 x664 +19 x665 +15 x666 +16 x667 +10 x668 +14 x669 +18 x670 +11 x671 +18 x672 +14 x673 +18 x674 +11 x675 +13 x676 +18 x677 +16 x678 +12 x679 +15 x680 +13 x681 +16 x682 +17 x683 +19 x684 +17 x685 +11 x686 +19 x687 +16 x688 +12 x689 +14 x690 +16 x691 +17 x692 +18 x693 +11 x694 +18 x695 +10 x696 +15 x697 +13 x698 +11 x699 +10 x700 +13 x701 +17 x702 +16 x703 +15 x704 +11 x705 +16 x706 +17 x707 +11 x708 +13 x709 +16 x710 +17 x711 +15 x712 +19 x713 +16 x714 +10 x715 +17 x716 +15 x717 +16 x718 +16 x719 +19 x720 <= 61
C13: +1 x1 +1 x61 +1 x121 +1 x181 +1 x241 +1 x301 +1 x361 +1 x421 +1 x481 +1 x541 +1 x601 +1 x661 <= 1
C14: +1 x2 +1 x62 +1 x122 +1 x182 +1 x242 +1 x302 +1 x362 +1 x422 +1 x482 +1 x542 +1 x602 +1 x662 <= 1
C15: +1 x3 +1 x63 +1 x123 +1 x183 +1 x243 +1 x303 +1 x363 +1 x423 +1 x483 +1 x543 +1 x603 +1 x663 <= 1
C16: +1 x4 +1 x64 +1 x124 +1 x184 +1 x244 +1 x304 +1 x364 +1 x424 +1 x484 +1 x544 +1 x604 +1 x664 <= 1
C17: +1 x5 +1 x65 +1 x125 +1 x185 +1 x245 +1 x305 +1 x365 +1 x425 +1 x485 +1 x545 +1 x605 +1 x665 <= 1
C18: +1 x6 +1 x66 +1 x126 +1 x186 +1 x246 +1 x306 +1 x366 +1 x426 +1 x486 +1 x546 +1 x606 +1 x666 <= 1
C19: +1 x7 +1 x67 +1 x127 +1 x187 +1 x247 +1 x307 +1 x367 +1 x427 +1 x487 +1 x547 +1 x607 +1 x667 <= 1
C20: +1 x8 +1 x68 +1 x128 +1 x188 +1 x248 +1 x308 +1 x368 +1 x428 +1 x488 +1 x548 +1 x608 +1 x668 <= 1
C21: +1 x9 +1 x69 +1 x129 +1 x189 +1 x249 +1 x309 +1 x369 +1 x429 +1 x489 +1 x549 +1 x609 +1 x669 <= 1
C22: +1 x10 +1 x70 +1 x130 +1 x190 +1 x250 +1 x310 +1 x370 +1 x430 +1 x490 +1 x550 +1 x610 +1 x670 <= 1
C23: +1 x11 +1 x71 +1 x131 +1 x191 +1 x251 +1 x311 +1 x371 +1 x431 +1 x491 +1 x551 +1 x611 +1 x671 <= 1
C24: +1 x12 +1 x72 +1 x132 +1 x192 +1 x252 +1 x312 +1 x372 +1 x432 +1 x492 +1 x552 +1 x612 +1 x672 <= 1
C25: +1 x13 +1 x73 +1 x133 +1 x193 +1 x253 +1 x313 +1 x373 +1 x433 +1 x493 +1 x553 +1 x613 +1 x673 <= 1
C26: +1 x14 +1 x74 +1 x134 +1 x194 +1 x254 +1 x314 +1 x374 +1 x434 +1 x494 +1 x554 +1 x614 +1 x674 <= 1
C27: +1 x15 +1 x75 +1 x135 +1 x195 +1 x255 +1 x315 +1 x375 +1 x435 +1 x495 +1 x555 +1 x615 +1 x675 <= 1
C28: +1 x16 +1 x76 +1 x136 +1 x196 +1 x256 +1 x316 +1 x376 +1 x436 +1 x496 +1 x556 +1 x616 +1 x676 <= 1
C29: +1 x17 +1 x77 +1 x137 +1 x197 +1 x257 +1 x317 +1 x377 +1 x437 +1 x497 +1 x557 +1 x617 +1 x677 <= 1
C30: +1 x18 +1 x78 +1 x138 +1 x198 +1 x258 +1 x318 +1 x378 +1 x438 +1 x498 +1 x558 +1 x618 +1 x678 <= 1
C31: +1 x19 +1 x79 +1 x139 +1 x199 +1 x259 +1 x319 +1 x379 +1 x439 +1 x499 +1 x559 +1 x619 +1 x679 <= 1
C32: +1 x20 +1 x80 +1 x140 +1 x200 +1 x260 +1 x320 +1 x380 +1 x440 +1 x500 +1 x560 +1 x620 +1 x680 <= 1
C33: +1 x21 +1 x81 +1 x141 +1 x201 +1 x261 +1 x321 +1 x381 +1 x441 +1 x501 +1 x561 +1 x621 +1 x681 <= 1
C34: +1 x22 +1 x82 +1 x142 +1 x202 +1 x262 +1 x322 +1 x382 +1 x442 +1 x502 +1 x562 +1 x622 +1 x682 <= 1
C35: +1 x23 +1 x83 +1 x143 +1 x203 +1 x263 +1 x323 +1 x383 +1 x443 +1 x503 +1 x563 +1 x623 +1 x683 <= 1
C36: +1 x24 +1 x84 +1 x144 +1 x204 +1 x264 +1 x324 +1 x384 +1 x444 +1 x504 +1 x564 +1 x624 +1 x684 <= 1
C37: +1 x25 +1 x85 +1 x145 +1 x205 +1 x265 +1 x325 +1 x385 +1 x445 +1 x505 +1 x565 +1 x625 +1 x685 <= 1
C38: +1 x26 +1 x86 +1 x146 +1 x206 +1 x266 +1 x326 +1 x386 +1 x446 +1 x506 +1 x566 +1 x626 +1 x686 <= 1
C39: +1 x27 +1 x87 +1 x147 +1 x207 +1 x267 +1 x327 +1 x387 +1 x447 +1 x507 +1 x567 +1 x627 +1 x687 <= 1
C40: +1 x28 +1 x88 +1 x148 +1 x208 +1 x268 +1 x328 +1 x388 +1 x448 +1 x508 +1 x568 +1 x628 +1 x688 <= 1
C41: +1 x29 +1 x89 +1 x149 +1 x209 +1 x269 +1 x329 +1 x389 +1 x449 +1 x509 +1 x569 +1 x629 +1 x689 <= 1
C42: +1 x30 +1 x90 +1 x150 +1 x210 +1 x270 +1 x330 +1 x390 +1 x450 +1 x510 +1 x570 +1 x630 +1 x690 <= 1
C43: +1 x31 +1 x91 +1 x151 +1 x211 +1 x271 +1 x331 +1 x391 +1 x451 +1 x511 +1 x571 +1 x631 +1 x691 <= 1
C44: +1 x32 +1 x92 +1 x152 +1 x212 +1 x272 +1 x332 +1 x392 +1 x452 +1 x512 +1 x572 +1 x632 +1 x692 <= 1
C45: +1 x33 +1 x93 +1 x153 +1 x213 +1 x273 +1 x333 +1 x393 +1 x453 +1 x513 +1 x573 +1 x633 +1 x693 <= 1
C46: +1 x34 +1 x94 +1 x154 +1 x214 +1 x274 +1 x334 +1 x394 +1 x454 +1 x514 +1 x574 +1 x634 +1 x694 <= 1
C47: +1 x35 +1 x95 +1 x155 +1 x215 +1 x275 +1 x335 +1 x395 +1 x455 +1 x515 +1 x575 +1 x635 +1 x695 <= 1
C48: +1 x36 +1 x96 +1 x156 +1 x216 +1 x276 +1 x336 +1 x396 +1 x456 +1 x516 +1 x576 +1 x636 +1 x696 <= 1
C49: +1 x37 +1 x97 +1 x157 +1 x217 +1 x277 +1 x337 +1 x397 +1 x457 +1 x517 +1 x577 +1 x637 +1 x697 <= 1
C50: +1 x38 +1 x98 +1 x158 +1 x218 +1 x278 +1 x338 +1 x398 +1 x458 +1 x518 +1 x578 +1 x638 +1 x698 <= 1
C51: +1 x39 +1 x99 +1 x159 +1 x219 +1 x279 +1 x339 +1 x399 +1 x459 +1 x519 +1 x579 +1 x639 +1 x699 <= 1
C52: +1 x40 +1 x100 +1 x160 +1 x220 +1 x280 +1 x340 +1 x400 +1 x460 +1 x520 +1 x580 +1 x640 +1 x700 <= 1
C53: +1 x41 +1 x101 +1 x161 +1 x221 +1 x281 +1 x341 +1 x401 +1 x461 +1 x521 +1 x581 +1 x641 +1 x701 <= 1
C54: +1 x42 +1 x102 +1 x162 +1 x222 +1 x282 +1 x342 +1 x402 +1 x462 +1 x522 +1 x582 +1 x642 +1 x702 <= 1
C55: +1 x43 +1 x103 +1 x163 +1 x223 +1 x283 +1 x343 +1 x403 +1 x463 +1 x523 +1 x583 +1 x643 +1 x703 <= 1
C56: +1 x44 +1 x104 +1 x164 +1 x224 +1 x284 +1 x344 +1 x404 +1 x464 +1 x524 +1 x584 +1 x644 +1 x704 <= 1
C57: +1 x45 +1 x105 +1 x165 +1 x225 +1 x285 +1 x345 +1 x405 +1 x465 +1 x525 +1 x585 +1 x645 +1 x705 <= 1
C58: +1 x46 +1 x106 +1 x166 +1 x226 +1 x286 +1 x346 +1 x406 +1 x466 +1 x526 +1 x586 +1 x646 +1 x706 <= 1
C59: +1 x47 +1 x107 +1 x167 +1 x227 +1 x287 +1 x347 +1 x407 +1 x467 +1 x527 +1 x587 +1 x647 +1 x707 <= 1
C60: +1 x48 +1 x108 +1 x168 +1 x228 +1 x288 +1 x348 +1 x408 +1 x468 +1 x528 +1 x588 +1 x648 +1 x708 <= 1
C61: +1 x49 +1 x109 +1 x169 +1 x229 +1 x289 +1 x349 +1 x409 +1 x469 +1 x529 +1 x589 +1 x649 +1 x709 <= 1
C62: +1 x50 +1 x110 +1 x170 +1 x230 +1 x290 +1 x350 +1 x410 +1 x470 +1 x530 +1 x590 +1 x650 +1 x710 <= 1
C63: +1 x51 +1 x111 +1 x171 +1 x231 +1 x291 +1 x351 +1 x411 +1 x471 +1 x531 +1 x591 +1 x651 +1 x711 <= 1
C64: +1 x52 +1 x112 +1 x172 +1 x232 +1 x292 +1 x352 +1 x412 +1 x472 +1 x532 +1 x592 +1 x652 +1 x712 <= 1
C65: +1 x53 +1 x113 +1 x173 +1 x233 +1 x293 +1 x353 +1 x413 +1 x473 +1 x533 +1 x593 +1 x653 +1 x713 <= 1
C66: +1 x54 +1 x114 +1 x174 +1 x234 +1 x294 +1 x354 +1 x414 +1 x474 +1 x534 +1 x594 +1 x654 +1 x714 <= 1
C67: +1 x55 +1 x115 +1 x175 +1 x235 +1 x295 +1 x355 +1 x415 +1 x475 +1 x535 +1 x595 +1 x655 +1 x715 <= 1
C68: +1 x56 +1 x116 +1 x176 +1 x236 +1 x296 +1 x356 +1 x416 +1 x476 +1 x536 +1 x596 +1 x656 +1 x716 <= 1
C69: +1 x57 +1 x117 +1 x177 +1 x237 +1 x297 +1 x357 +1 x417 +1 x477 +1 x537 +1 x597 +1 x657 +1 x717 <= 1
C70: +1 x58 +1 x118 +1 x178 +1 x238 +1 x298 +1 x358 +1 x418 +1 x478 +1 x538 +1 x598 +1 x658 +1 x718 <= 1
C71: +1 x59 +1 x119 +1 x179 +1 x239 +1 x299 +1 x359 +1 x419 +1 x479 +1 x539 +1 x599 +1 x659 +1 x719 <= 1
C72: +1 x60 +1 x120 +1 x180 +1 x240 +1 x300 +1 x360 +1 x420 +1 x480 +1 x540 +1 x600 +1 x660 +1 x720 <= 1

binary
 x1 x2 x3 x4 x5 x6 x7 x8 x9 x10 x11 x12 x13 x14 x15 x16 x17 x18 x19 x20 x21 x22 x23 x24 x25 x26 x27 x28 x29 x30 x31 x32 x33 x34 x35 x36 x37 x38 x39 x40 x41 x42 x43 x44 x45 x46 x47 x48 x49 x50 x51 x52 x53 x54 x55 x56 x57 x58 x59 x60 x61 x62 x63 x64 x65 x66 x67 x68 x69 x70 x71 x72 x73 x74 x75 x76 x77 x78 x79 x80 x81 x82 x83 x84 x85 x86 x87 x88 x89 x90 x91 x92 x93 x94 x95 x96 x97 x98 x99 x100 x101 x102 x103 x104 x105 x106 x107 x108 x109 x110 x111 x112 x113 x114 x115 x116 x117 x118 x119 x120 x121 x122 x123 x124 x125 x126 x127 x128 x129 x130 x131 x132 x133 x134 x135 x136 x137 x138 x139 x140 x141 x142 x143 x144 x145 x146 x147 x148 x149 x150 x151 x152 x153 x154 x155 x156 x157 x158 x159 x160 x161 x162 x163 x164 x165 x166 x167 x168 x169 x170 x171 x172 x173 x174 x175 x176 x177 x178 x179 x180 x181 x182 x183 x184 x185 x186 x187 x188 x189 x190 x191 x192 x193 x194 x195 x196 x197 x198 x199 x200 x201 x202 x203 x204 x205 x206 x207 x208 x209 x210 x211 x212 x213 x214 x215 x216 x217 x218 x219 x220 x221 x222 x223 x224 x225 x226 x227 x228 x229 x230 x231 x232 x233 x234 x235 x236 x237 x238 x239 x240 x241 x242 x243 x244 x245 x246 x247 x248 x249 x250 x251 x252 x253 x254 x255 x256 x257 x258 x259 x260 x261 x262 x263 x264 x265 x266 x267 x268 x269 x270 x271 x272 x273 x274 x275 x276 x277 x278 x279 x280 x281 x282 x283 x284 x285 x286 x287 x288 x289 x290 x291 x292 x293 x294 x295 x296 x297 x298 x299 x300 x301 x302 x303 x304 x305 x306 x307 x308 x309 x310 x311 x312 x313 x314 x315 x316 x317 x318 x319 x320 x321 x322 x323 x324 x325 x326 x327 x328 x329 x330 x331 x332 x333 x334 x335 x336 x337 x338 x339 x340 x341 x342 x343 x344 x345 x346 x347 x348 x349 x350 x351 x352 x353 x354 x355 x356 x357 x358 x359 x360 x361 x362 x363 x364 x365 x366 x367 x368 x369 x370 x371 x372 x373 x374 x375 x376 x377 x378 x379 x380 x381 x382 x383 x384 x385 x386 x387 x388 x389 x390 x391 x392 x393 x394 x395 x396 x397 x398 x399 x400 x401 x402 x403 x404 x405 x406 x407 x408 x409 x410 x411 x412 x413 x414 x415 x416 x417 x418 x419 x420 x421 x422 x423 x424 x425 x426 x427 x428 x429 x430 x431 x432 x433 x434 x435 x436 x437 x438 x439 x440 x441 x442 x443 x444 x445 x446 x447 x448 x449 x450 x451 x452 x453 x454 x455 x456 x457 x458 x459 x460 x461 x462 x463 x464 x465 x466 x467 x468 x469 x470 x471 x472 x473 x474 x475 x476 x477 x478 x479 x480 x481 x482 x483 x484 x485 x486 x487 x488 x489 x490 x491 x492 x493 x494 x495 x496 x497 x498 x499 x500 x501 x502 x503 x504 x505 x506 x507 x508 x509 x510 x511 x512 x513 x514 x515 x516 x517 x518 x519 x520 x521 x522 x523 x524 x525 x526 x527 x528 x529 x530 x531 x532 x533 x534 x535 x536 x537 x538 x539 x540 x541 x542 x543 x544 x545 x546 x547 x548 x549 x550 x551 x552 x553 x554 x555 x556 x557 x558 x559 x560 x561 x562 x563 x564 x565 x566 x567 x568 x569 x570 x571 x572 x573 x574 x575 x576 x577 x578 x579 x580 x581 x582 x583 x584 x585 x586 x587 x588 x589 x590 x591 x592 x593 x594 x595 x596 x597 x598 x599 x600 x601 x602 x603 x604 x605 x606 x607 x608 x609 x610 x611 x612 x613 x614 x615 x616 x617 x618 x619 x620 x621 x622 x623 x624 x625 x626 x627 x628 x629 x630 x631 x632 x633 x634 x635 x636 x637 x638 x639 x640 x641 x642 x643 x644 x645 x646 x647 x648 x649 x650 x651 x652 x653 x654 x655 x656 x657 x658 x659 x660 x661 x662 x663 x664 x665 x666 x667 x668 x669 x670 x671 x672 x673 x674 x675 x676 x677 x678 x679 x680 x681 x682 x683 x684 x685 x686 x687 x688 x689 x690 x691 x692 x693 x694 x695 x696 x697 x698 x699 x700 x701 x702 x703 x704 x705 x706 x707 x708 x709 x710 x711 x712 x713 x714 x715 x716 x717 x718 x719 x720